************************************************************************
file with basedata            : mm3_.bas
initial value random generator: 632771121
************************************************************************
projects                      :  1
jobs (incl. supersource/sink ):  12
horizon                       :  83
RESOURCES
  - renewable                 :  2   R
  - nonrenewable              :  2   N
  - doubly constrained        :  0   D
************************************************************************
PROJECT INFORMATION:
pronr.  #jobs rel.date duedate tardcost  MPM-Time
    1     10      0       10        7       10
************************************************************************
PRECEDENCE RELATIONS:
jobnr.    #modes  #successors   successors
   0        1          3           1   2   3
   1        3          1          10
   2        3          2           4   5
   3        3          1           7
   4        3          2           8   9
   5        3          3           6   7  10
   6        3          2           8   9
   7        3          1           8
   8        3          1          11
   9        3          1          11
  10        3          1          11
  11        1          0        
************************************************************************
REQUESTS/DURATIONS:
jobnr. mode duration  R 1  R 2  R 3  R 4  E(W 1)  E(W 2)
------------------------------------------------------------------------
  0      1     0       0    0    0    0     0       0
  1      1     3       0    6    0    7    18      21
  2      1     1       0    4    4    0     4       4
  3      1     2       0    6    0    9    12      18
  4      1     1       5    0    0    6     5       6
  5      1     3       0    5    0    4    15      12
  6      1     4       0    9    0    3    36      12
  7      1     1       0    6    8    0     6       8
  8      1     2      10    0    0    8    20      16
  9      1     1       0    6    7    0     6       7
 10      1     3       0    4    8    0    12      24
 11      1     0       0    0    0    0     0       0
************************************************************************
RESOURCEAVAILABILITIES:
  R 1  R 2
   16   75
************************************************************************
RESOURCE LIMITS:
jobnr.  l(R 1)  u(R 1)  l(R 2)  u(R 2)
------------------------------------------------------------------------
  0        0       0       0       0
  1        3       6       4       7
  2        2       4       2       4
  3        3       6       5       9
  4        3       5       3       6
  5        3       5       2       4
  6        5       9       2       3
  7        3       6       4       8
  8        5      10       4       8
  9        3       6       4       7
 10        2       4       4       8
 11        0       0       0       0
************************************************************************
SCENARIOS:
------------------------------------------------------------------------
RESOURCE k = 1
s = 1: (0, 29, 3, 8, 4, 12, 55, 5, 24, 8, 15, 0)
s = 2: (0, 18, 4, 10, 5, 21, 47, 6, 25, 7, 19, 0)
s = 3: (0, 19, 4, 8, 4, 12, 33, 6, 22, 5, 14, 0)
s = 4: (0, 16, 5, 11, 8, 14, 35, 6, 13, 7, 9, 0)
s = 5: (0, 24, 5, 16, 4, 14, 29, 7, 24, 8, 8, 0)
s = 6: (0, 11, 5, 13, 4, 10, 37, 5, 16, 6, 17, 0)
s = 7: (0, 31, 4, 13, 6, 21, 36, 9, 16, 5, 11, 0)
s = 8: (0, 27, 4, 8, 5, 13, 35, 6, 19, 8, 9, 0)
s = 9: (0, 12, 4, 9, 4, 18, 46, 5, 23, 8, 16, 0)
s = 10: (0, 16, 3, 11, 6, 11, 47, 6, 30, 10, 9, 0)
s = 11: (0, 15, 7, 9, 5, 13, 33, 6, 16, 8, 10, 0)
s = 12: (0, 10, 5, 16, 4, 14, 53, 5, 11, 6, 9, 0)
s = 13: (0, 32, 7, 10, 5, 16, 48, 6, 24, 5, 10, 0)
s = 14: (0, 26, 4, 17, 6, 10, 41, 5, 20, 5, 12, 0)
s = 15: (0, 10, 4, 16, 5, 19, 24, 5, 33, 7, 16, 0)
s = 16: (0, 20, 5, 8, 4, 20, 40, 5, 12, 8, 15, 0)
s = 17: (0, 23, 5, 16, 6, 11, 33, 4, 23, 5, 17, 0)
s = 18: (0, 19, 4, 10, 8, 11, 42, 7, 18, 5, 13, 0)
s = 19: (0, 12, 6, 7, 4, 24, 34, 8, 23, 6, 15, 0)
s = 20: (0, 20, 4, 17, 4, 19, 32, 4, 31, 10, 19, 0)
s = 21: (0, 10, 6, 10, 6, 9, 29, 9, 26, 6, 14, 0)
s = 22: (0, 29, 4, 15, 5, 16, 27, 5, 33, 10, 19, 0)
s = 23: (0, 17, 5, 11, 4, 17, 31, 5, 13, 7, 14, 0)
s = 24: (0, 15, 4, 15, 7, 16, 23, 5, 18, 6, 14, 0)
s = 25: (0, 14, 4, 10, 6, 19, 28, 8, 33, 5, 15, 0)
s = 26: (0, 15, 4, 13, 6, 17, 27, 7, 23, 9, 15, 0)
s = 27: (0, 30, 5, 8, 4, 11, 42, 9, 13, 5, 11, 0)
s = 28: (0, 23, 3, 9, 6, 19, 45, 8, 23, 7, 13, 0)
s = 29: (0, 23, 4, 16, 4, 13, 29, 5, 13, 5, 14, 0)
s = 30: (0, 21, 4, 10, 4, 9, 52, 5, 12, 8, 8, 0)
s = 31: (0, 15, 6, 17, 6, 8, 46, 5, 16, 4, 11, 0)
s = 32: (0, 26, 4, 13, 6, 10, 27, 7, 31, 5, 15, 0)
s = 33: (0, 25, 5, 11, 5, 25, 29, 7, 27, 7, 10, 0)
s = 34: (0, 15, 6, 11, 4, 19, 36, 9, 22, 5, 17, 0)
s = 35: (0, 15, 5, 11, 4, 11, 40, 5, 22, 5, 10, 0)
s = 36: (0, 16, 4, 17, 5, 14, 30, 9, 23, 8, 11, 0)
s = 37: (0, 14, 5, 11, 5, 12, 22, 6, 25, 11, 20, 0)
s = 38: (0, 18, 4, 10, 6, 12, 33, 5, 16, 8, 9, 0)
s = 39: (0, 14, 5, 8, 7, 15, 27, 8, 18, 7, 10, 0)
s = 40: (0, 15, 4, 13, 6, 17, 53, 4, 31, 6, 7, 0)
s = 41: (0, 19, 7, 15, 6, 16, 29, 4, 36, 5, 15, 0)
s = 42: (0, 15, 4, 10, 7, 17, 43, 8, 26, 5, 16, 0)
s = 43: (0, 23, 5, 15, 8, 14, 42, 8, 35, 6, 12, 0)
s = 44: (0, 26, 5, 17, 8, 18, 24, 7, 14, 6, 15, 0)
s = 45: (0, 17, 4, 11, 5, 22, 25, 7, 17, 9, 8, 0)
s = 46: (0, 15, 4, 16, 6, 17, 50, 4, 27, 6, 17, 0)
s = 47: (0, 10, 6, 16, 4, 13, 47, 9, 18, 10, 12, 0)
s = 48: (0, 15, 3, 11, 4, 21, 22, 6, 17, 9, 8, 0)
s = 49: (0, 22, 6, 7, 4, 10, 22, 6, 18, 7, 7, 0)
s = 50: (0, 15, 6, 23, 6, 13, 24, 7, 19, 5, 21, 0)
s = 51: (0, 14, 4, 15, 7, 12, 64, 6, 21, 9, 16, 0)
s = 52: (0, 24, 5, 7, 6, 19, 30, 6, 16, 9, 18, 0)
s = 53: (0, 15, 4, 12, 5, 17, 23, 7, 16, 7, 21, 0)
s = 54: (0, 16, 4, 20, 5, 15, 39, 6, 13, 9, 15, 0)
s = 55: (0, 15, 6, 14, 7, 12, 38, 4, 19, 4, 13, 0)
s = 56: (0, 18, 4, 16, 3, 18, 41, 6, 18, 6, 19, 0)
s = 57: (0, 14, 4, 11, 6, 21, 38, 6, 26, 4, 18, 0)
s = 58: (0, 28, 4, 12, 4, 12, 27, 11, 18, 8, 11, 0)
s = 59: (0, 23, 8, 19, 8, 11, 22, 8, 32, 7, 15, 0)
s = 60: (0, 25, 3, 13, 5, 12, 26, 8, 15, 6, 7, 0)
s = 61: (0, 17, 5, 11, 5, 17, 25, 9, 21, 6, 9, 0)
s = 62: (0, 11, 4, 16, 4, 18, 44, 7, 19, 6, 15, 0)
s = 63: (0, 13, 4, 11, 9, 20, 23, 4, 16, 7, 18, 0)
s = 64: (0, 26, 6, 15, 4, 10, 52, 7, 19, 5, 13, 0)
s = 65: (0, 13, 3, 7, 6, 22, 37, 6, 15, 6, 11, 0)
s = 66: (0, 14, 4, 11, 8, 19, 28, 5, 22, 4, 9, 0)
s = 67: (0, 19, 6, 18, 4, 13, 49, 4, 18, 5, 12, 0)
s = 68: (0, 20, 4, 8, 6, 15, 58, 5, 15, 6, 16, 0)
s = 69: (0, 23, 3, 8, 5, 18, 29, 9, 23, 7, 13, 0)
s = 70: (0, 10, 4, 17, 6, 22, 52, 6, 22, 7, 10, 0)
s = 71: (0, 17, 4, 12, 6, 16, 28, 4, 15, 4, 12, 0)
s = 72: (0, 21, 4, 8, 7, 16, 22, 5, 28, 4, 9, 0)
s = 73: (0, 21, 4, 16, 5, 12, 45, 8, 19, 4, 11, 0)
s = 74: (0, 13, 4, 11, 8, 14, 50, 6, 12, 6, 9, 0)
s = 75: (0, 17, 4, 15, 6, 11, 23, 6, 16, 7, 8, 0)
s = 76: (0, 11, 6, 16, 6, 10, 32, 4, 16, 10, 17, 0)
s = 77: (0, 16, 4, 10, 5, 17, 54, 6, 15, 5, 7, 0)
s = 78: (0, 24, 3, 13, 5, 16, 25, 9, 37, 4, 9, 0)
s = 79: (0, 24, 4, 13, 5, 17, 36, 6, 14, 7, 8, 0)
s = 80: (0, 17, 3, 15, 3, 16, 47, 5, 13, 6, 11, 0)
s = 81: (0, 15, 6, 10, 10, 14, 51, 5, 22, 6, 16, 0)
s = 82: (0, 16, 5, 10, 9, 16, 31, 9, 14, 10, 17, 0)
s = 83: (0, 21, 5, 13, 5, 16, 31, 6, 28, 5, 9, 0)
s = 84: (0, 20, 4, 17, 5, 18, 34, 7, 23, 5, 19, 0)
s = 85: (0, 19, 4, 10, 8, 15, 46, 5, 22, 8, 16, 0)
s = 86: (0, 14, 5, 7, 6, 11, 48, 5, 20, 6, 10, 0)
s = 87: (0, 26, 4, 15, 5, 10, 28, 5, 17, 8, 12, 0)
s = 88: (0, 17, 3, 7, 5, 19, 22, 7, 21, 6, 11, 0)
s = 89: (0, 16, 5, 7, 7, 17, 22, 7, 25, 6, 12, 0)
s = 90: (0, 12, 3, 9, 5, 13, 27, 8, 26, 7, 14, 0)
s = 91: (0, 23, 3, 9, 4, 15, 36, 7, 21, 6, 13, 0)
s = 92: (0, 11, 5, 20, 6, 11, 41, 5, 16, 7, 13, 0)
s = 93: (0, 23, 4, 8, 6, 11, 30, 5, 18, 9, 13, 0)
s = 94: (0, 23, 3, 13, 6, 15, 41, 6, 12, 6, 16, 0)
s = 95: (0, 17, 4, 15, 5, 22, 64, 8, 17, 9, 15, 0)
s = 96: (0, 19, 5, 19, 7, 13, 50, 9, 11, 6, 22, 0)
s = 97: (0, 21, 8, 15, 5, 14, 28, 10, 13, 5, 8, 0)
s = 98: (0, 29, 3, 17, 6, 11, 24, 5, 15, 4, 15, 0)
s = 99: (0, 16, 4, 17, 6, 15, 31, 5, 22, 6, 13, 0)
s = 100: (0, 22, 6, 22, 5, 25, 29, 5, 22, 6, 13, 0)
s = 101: (0, 26, 7, 8, 8, 21, 40, 5, 30, 6, 17, 0)
s = 102: (0, 24, 5, 14, 8, 15, 22, 5, 17, 8, 12, 0)
s = 103: (0, 17, 5, 11, 6, 16, 29, 11, 19, 6, 11, 0)
s = 104: (0, 10, 3, 10, 6, 14, 39, 7, 18, 8, 10, 0)
s = 105: (0, 16, 6, 12, 5, 19, 21, 5, 25, 5, 9, 0)
s = 106: (0, 21, 3, 18, 6, 12, 29, 5, 19, 8, 13, 0)
s = 107: (0, 17, 4, 14, 6, 14, 57, 11, 22, 7, 11, 0)
s = 108: (0, 25, 5, 17, 4, 26, 25, 8, 14, 6, 17, 0)
s = 109: (0, 19, 4, 12, 5, 22, 37, 10, 21, 6, 10, 0)
s = 110: (0, 12, 4, 15, 5, 10, 36, 4, 21, 5, 13, 0)
s = 111: (0, 16, 3, 7, 4, 13, 39, 8, 17, 5, 21, 0)
s = 112: (0, 19, 3, 12, 7, 11, 48, 8, 24, 5, 12, 0)
s = 113: (0, 23, 3, 21, 3, 12, 42, 6, 19, 7, 8, 0)
s = 114: (0, 20, 5, 9, 4, 12, 23, 7, 15, 6, 12, 0)
s = 115: (0, 15, 5, 14, 6, 16, 35, 9, 18, 6, 16, 0)
s = 116: (0, 14, 4, 9, 9, 12, 24, 8, 18, 6, 13, 0)
s = 117: (0, 24, 4, 10, 6, 10, 40, 8, 17, 6, 15, 0)
s = 118: (0, 19, 3, 8, 4, 18, 48, 6, 15, 5, 9, 0)
s = 119: (0, 16, 3, 9, 6, 9, 31, 5, 19, 5, 10, 0)
s = 120: (0, 20, 4, 12, 5, 13, 29, 5, 23, 6, 16, 0)
s = 121: (0, 12, 4, 10, 6, 18, 26, 5, 35, 5, 14, 0)
s = 122: (0, 15, 3, 9, 4, 9, 24, 4, 14, 8, 15, 0)
s = 123: (0, 25, 5, 17, 5, 24, 54, 8, 13, 6, 7, 0)
s = 124: (0, 10, 4, 14, 5, 19, 35, 4, 26, 5, 11, 0)
s = 125: (0, 17, 4, 9, 7, 15, 28, 9, 21, 7, 9, 0)
s = 126: (0, 27, 4, 15, 5, 22, 30, 6, 28, 11, 11, 0)
s = 127: (0, 20, 3, 12, 5, 12, 55, 8, 14, 6, 13, 0)
s = 128: (0, 23, 7, 16, 4, 10, 38, 5, 23, 6, 9, 0)
s = 129: (0, 11, 6, 12, 6, 13, 25, 9, 13, 8, 9, 0)
s = 130: (0, 13, 4, 19, 5, 11, 32, 6, 27, 7, 11, 0)
s = 131: (0, 17, 3, 11, 8, 14, 25, 4, 25, 8, 8, 0)
s = 132: (0, 18, 5, 14, 6, 17, 27, 6, 22, 9, 10, 0)
s = 133: (0, 27, 5, 9, 5, 23, 46, 8, 27, 5, 14, 0)
s = 134: (0, 14, 7, 18, 5, 21, 27, 8, 15, 7, 16, 0)
s = 135: (0, 16, 4, 17, 4, 9, 36, 10, 17, 8, 11, 0)
s = 136: (0, 27, 4, 13, 4, 17, 55, 9, 14, 9, 8, 0)
s = 137: (0, 13, 6, 9, 9, 11, 23, 5, 24, 7, 10, 0)
s = 138: (0, 17, 4, 17, 4, 18, 37, 6, 30, 4, 10, 0)
s = 139: (0, 19, 4, 8, 4, 16, 25, 7, 18, 8, 15, 0)
s = 140: (0, 15, 3, 18, 6, 12, 46, 6, 21, 7, 14, 0)
s = 141: (0, 24, 4, 14, 4, 17, 43, 5, 19, 6, 12, 0)
s = 142: (0, 19, 4, 13, 4, 14, 34, 5, 23, 6, 11, 0)
s = 143: (0, 18, 3, 14, 4, 19, 26, 6, 18, 5, 13, 0)
s = 144: (0, 18, 4, 8, 4, 16, 22, 4, 28, 6, 14, 0)
s = 145: (0, 20, 4, 11, 4, 18, 25, 6, 14, 7, 12, 0)
s = 146: (0, 26, 6, 8, 6, 20, 55, 4, 15, 5, 20, 0)
s = 147: (0, 13, 7, 12, 5, 10, 41, 5, 21, 6, 13, 0)
s = 148: (0, 22, 5, 11, 5, 15, 45, 8, 15, 5, 11, 0)
s = 149: (0, 11, 6, 14, 8, 12, 21, 7, 31, 5, 13, 0)
s = 150: (0, 17, 4, 13, 6, 12, 48, 10, 15, 5, 9, 0)
s = 151: (0, 21, 5, 13, 6, 12, 34, 5, 27, 5, 22, 0)
s = 152: (0, 18, 4, 16, 7, 15, 23, 6, 19, 5, 11, 0)
s = 153: (0, 18, 4, 10, 8, 17, 47, 8, 21, 5, 12, 0)
s = 154: (0, 17, 5, 8, 7, 17, 50, 9, 19, 9, 11, 0)
s = 155: (0, 14, 3, 12, 7, 10, 44, 5, 29, 6, 13, 0)
s = 156: (0, 18, 3, 9, 4, 15, 37, 5, 15, 7, 8, 0)
s = 157: (0, 29, 5, 13, 4, 17, 39, 6, 27, 5, 13, 0)
s = 158: (0, 20, 4, 15, 7, 20, 41, 5, 20, 9, 14, 0)
s = 159: (0, 11, 5, 11, 6, 18, 32, 4, 28, 5, 7, 0)
s = 160: (0, 11, 3, 8, 3, 20, 38, 7, 18, 6, 11, 0)
s = 161: (0, 15, 3, 7, 6, 15, 35, 9, 18, 9, 8, 0)
s = 162: (0, 14, 3, 12, 5, 15, 23, 6, 23, 6, 16, 0)
s = 163: (0, 22, 5, 11, 5, 17, 46, 7, 27, 11, 10, 0)
s = 164: (0, 19, 4, 13, 5, 16, 38, 9, 18, 7, 9, 0)
s = 165: (0, 23, 5, 17, 5, 13, 34, 9, 13, 9, 9, 0)
s = 166: (0, 24, 4, 9, 3, 15, 45, 5, 27, 6, 9, 0)
s = 167: (0, 19, 5, 14, 4, 21, 26, 7, 13, 9, 13, 0)
s = 168: (0, 21, 5, 9, 7, 15, 32, 5, 23, 5, 22, 0)
s = 169: (0, 24, 5, 10, 7, 12, 50, 9, 24, 5, 11, 0)
s = 170: (0, 17, 3, 9, 5, 14, 35, 5, 13, 5, 18, 0)
s = 171: (0, 26, 5, 12, 4, 13, 47, 6, 25, 6, 8, 0)
s = 172: (0, 20, 3, 11, 6, 23, 26, 7, 23, 7, 9, 0)
s = 173: (0, 11, 3, 10, 8, 15, 49, 6, 18, 6, 9, 0)
s = 174: (0, 24, 4, 10, 5, 15, 27, 7, 23, 6, 14, 0)
s = 175: (0, 12, 6, 13, 7, 11, 30, 7, 21, 5, 10, 0)
s = 176: (0, 18, 3, 13, 7, 17, 62, 4, 18, 6, 16, 0)
s = 177: (0, 12, 6, 13, 6, 20, 30, 6, 26, 11, 11, 0)
s = 178: (0, 22, 5, 15, 4, 12, 21, 6, 13, 6, 11, 0)
s = 179: (0, 18, 6, 10, 7, 19, 34, 8, 20, 5, 13, 0)
s = 180: (0, 18, 3, 7, 3, 14, 39, 9, 18, 10, 16, 0)
s = 181: (0, 16, 3, 13, 4, 18, 25, 6, 31, 6, 16, 0)
s = 182: (0, 16, 7, 17, 4, 23, 29, 5, 18, 8, 16, 0)
s = 183: (0, 17, 4, 11, 4, 13, 27, 5, 22, 8, 17, 0)
s = 184: (0, 20, 4, 9, 9, 10, 48, 6, 26, 7, 10, 0)
s = 185: (0, 13, 3, 9, 7, 14, 39, 7, 28, 9, 10, 0)
s = 186: (0, 10, 4, 12, 5, 21, 40, 6, 32, 7, 15, 0)
s = 187: (0, 16, 6, 13, 6, 24, 44, 10, 13, 6, 11, 0)
s = 188: (0, 14, 4, 9, 5, 18, 46, 5, 24, 6, 10, 0)
s = 189: (0, 20, 5, 15, 5, 10, 56, 8, 17, 10, 15, 0)
s = 190: (0, 23, 5, 13, 8, 10, 43, 9, 17, 5, 9, 0)
s = 191: (0, 13, 4, 13, 5, 14, 42, 5, 22, 10, 10, 0)
s = 192: (0, 28, 4, 10, 4, 17, 36, 6, 19, 4, 12, 0)
s = 193: (0, 22, 4, 12, 4, 13, 34, 6, 22, 6, 9, 0)
s = 194: (0, 17, 4, 13, 6, 18, 47, 6, 17, 5, 12, 0)
s = 195: (0, 19, 7, 14, 6, 17, 40, 9, 20, 8, 15, 0)
s = 196: (0, 15, 6, 12, 5, 29, 31, 4, 26, 8, 11, 0)
s = 197: (0, 16, 4, 10, 6, 13, 42, 6, 24, 6, 12, 0)
s = 198: (0, 13, 6, 14, 5, 14, 49, 5, 23, 8, 12, 0)
s = 199: (0, 18, 5, 14, 7, 10, 49, 9, 28, 5, 11, 0)
s = 200: (0, 19, 5, 13, 6, 14, 44, 8, 27, 4, 12, 0)
------------------------------------------------------------------------
RESOURCE k = 2
s = 1: (0, 33, 3, 12, 5, 9, 19, 7, 19, 10, 29, 0)
s = 2: (0, 21, 4, 15, 6, 17, 16, 7, 20, 8, 37, 0)
s = 3: (0, 22, 4, 12, 5, 9, 11, 8, 18, 5, 27, 0)
s = 4: (0, 19, 5, 17, 9, 11, 12, 8, 11, 8, 18, 0)
s = 5: (0, 28, 5, 23, 5, 11, 10, 9, 19, 9, 15, 0)
s = 6: (0, 13, 5, 19, 5, 8, 13, 7, 13, 7, 33, 0)
s = 7: (0, 36, 4, 19, 7, 17, 12, 12, 13, 6, 21, 0)
s = 8: (0, 32, 4, 12, 6, 10, 12, 8, 15, 9, 17, 0)
s = 9: (0, 14, 4, 13, 4, 14, 16, 7, 18, 9, 31, 0)
s = 10: (0, 19, 3, 16, 7, 9, 16, 8, 24, 11, 18, 0)
s = 11: (0, 18, 7, 13, 6, 10, 11, 8, 13, 9, 19, 0)
s = 12: (0, 12, 5, 24, 5, 11, 18, 7, 9, 7, 18, 0)
s = 13: (0, 37, 7, 15, 6, 13, 16, 8, 19, 6, 20, 0)
s = 14: (0, 30, 4, 25, 7, 8, 14, 7, 16, 6, 24, 0)
s = 15: (0, 12, 4, 24, 6, 15, 8, 6, 27, 9, 31, 0)
s = 16: (0, 23, 5, 11, 5, 16, 14, 7, 10, 9, 30, 0)
s = 17: (0, 27, 5, 24, 7, 9, 11, 5, 19, 6, 33, 0)
s = 18: (0, 22, 4, 15, 9, 9, 14, 9, 15, 6, 26, 0)
s = 19: (0, 14, 6, 10, 4, 19, 12, 10, 18, 7, 29, 0)
s = 20: (0, 23, 4, 26, 5, 15, 11, 6, 25, 12, 37, 0)
s = 21: (0, 12, 6, 14, 8, 8, 10, 12, 21, 7, 28, 0)
s = 22: (0, 34, 4, 22, 6, 13, 9, 6, 26, 11, 37, 0)
s = 23: (0, 19, 5, 17, 5, 14, 11, 7, 10, 8, 27, 0)
s = 24: (0, 18, 4, 22, 8, 13, 8, 6, 14, 7, 27, 0)
s = 25: (0, 16, 4, 14, 8, 16, 10, 10, 27, 5, 30, 0)
s = 26: (0, 18, 4, 19, 7, 14, 9, 10, 19, 10, 30, 0)
s = 27: (0, 34, 5, 12, 5, 9, 14, 12, 11, 6, 21, 0)
s = 28: (0, 27, 3, 13, 7, 15, 15, 11, 18, 9, 25, 0)
s = 29: (0, 27, 4, 24, 5, 11, 10, 7, 11, 6, 27, 0)
s = 30: (0, 24, 4, 15, 5, 8, 18, 6, 10, 9, 16, 0)
s = 31: (0, 18, 6, 26, 8, 7, 16, 6, 13, 5, 21, 0)
s = 32: (0, 30, 4, 19, 7, 8, 9, 9, 25, 6, 30, 0)
s = 33: (0, 29, 5, 17, 6, 20, 10, 9, 22, 8, 19, 0)
s = 34: (0, 17, 6, 16, 5, 15, 12, 12, 18, 6, 33, 0)
s = 35: (0, 18, 5, 17, 4, 9, 14, 7, 17, 6, 20, 0)
s = 36: (0, 19, 4, 26, 5, 11, 10, 12, 18, 9, 21, 0)
s = 37: (0, 16, 5, 17, 6, 10, 8, 8, 20, 12, 39, 0)
s = 38: (0, 21, 4, 14, 7, 10, 11, 7, 13, 10, 18, 0)
s = 39: (0, 16, 5, 12, 8, 12, 9, 11, 15, 8, 19, 0)
s = 40: (0, 17, 4, 19, 7, 14, 18, 5, 25, 7, 14, 0)
s = 41: (0, 23, 7, 22, 7, 13, 10, 6, 29, 6, 30, 0)
s = 42: (0, 17, 4, 15, 9, 14, 15, 11, 21, 6, 31, 0)
s = 43: (0, 27, 5, 22, 9, 11, 14, 10, 28, 7, 23, 0)
s = 44: (0, 30, 5, 26, 9, 14, 8, 9, 11, 7, 30, 0)
s = 45: (0, 19, 4, 16, 6, 18, 9, 9, 14, 10, 16, 0)
s = 46: (0, 18, 4, 24, 7, 13, 17, 5, 22, 7, 34, 0)
s = 47: (0, 12, 6, 24, 5, 11, 16, 12, 15, 11, 24, 0)
s = 48: (0, 17, 3, 16, 4, 17, 8, 8, 13, 11, 15, 0)
s = 49: (0, 26, 6, 11, 5, 8, 8, 8, 14, 8, 13, 0)
s = 50: (0, 17, 6, 35, 7, 11, 8, 9, 15, 5, 41, 0)
s = 51: (0, 17, 4, 23, 8, 10, 22, 7, 17, 11, 31, 0)
s = 52: (0, 28, 5, 11, 7, 15, 10, 8, 13, 10, 35, 0)
s = 53: (0, 18, 4, 17, 6, 14, 8, 9, 13, 8, 41, 0)
s = 54: (0, 18, 4, 29, 5, 12, 13, 8, 10, 10, 29, 0)
s = 55: (0, 17, 6, 21, 8, 10, 13, 5, 16, 5, 26, 0)
s = 56: (0, 21, 4, 24, 4, 14, 14, 8, 15, 7, 38, 0)
s = 57: (0, 16, 4, 17, 7, 17, 13, 8, 21, 5, 36, 0)
s = 58: (0, 32, 4, 18, 4, 10, 9, 14, 14, 9, 21, 0)
s = 59: (0, 26, 8, 28, 10, 9, 8, 10, 25, 8, 29, 0)
s = 60: (0, 29, 3, 19, 6, 10, 9, 11, 12, 7, 14, 0)
s = 61: (0, 20, 5, 16, 6, 14, 9, 12, 17, 6, 17, 0)
s = 62: (0, 13, 4, 24, 5, 14, 15, 10, 15, 7, 29, 0)
s = 63: (0, 15, 4, 16, 10, 16, 8, 5, 13, 8, 35, 0)
s = 64: (0, 31, 6, 22, 4, 8, 18, 9, 15, 6, 26, 0)
s = 65: (0, 15, 3, 10, 7, 18, 13, 7, 12, 7, 22, 0)
s = 66: (0, 16, 4, 16, 9, 16, 10, 6, 18, 5, 17, 0)
s = 67: (0, 22, 6, 26, 4, 10, 17, 5, 14, 5, 23, 0)
s = 68: (0, 23, 4, 12, 7, 12, 20, 6, 12, 7, 31, 0)
s = 69: (0, 27, 3, 12, 6, 14, 10, 12, 19, 9, 25, 0)
s = 70: (0, 12, 4, 25, 7, 18, 18, 7, 18, 8, 20, 0)
s = 71: (0, 20, 4, 18, 7, 13, 10, 5, 12, 5, 24, 0)
s = 72: (0, 25, 4, 11, 8, 13, 8, 7, 22, 5, 17, 0)
s = 73: (0, 24, 4, 24, 5, 10, 15, 11, 15, 5, 21, 0)
s = 74: (0, 15, 4, 16, 10, 11, 17, 8, 10, 7, 18, 0)
s = 75: (0, 20, 4, 23, 8, 9, 8, 8, 13, 8, 16, 0)
s = 76: (0, 13, 6, 24, 7, 8, 11, 6, 13, 12, 33, 0)
s = 77: (0, 19, 4, 15, 6, 14, 18, 8, 12, 6, 14, 0)
s = 78: (0, 28, 3, 19, 6, 13, 9, 11, 29, 5, 18, 0)
s = 79: (0, 28, 4, 20, 6, 13, 12, 8, 12, 8, 16, 0)
s = 80: (0, 20, 3, 22, 4, 13, 16, 7, 11, 7, 22, 0)
s = 81: (0, 18, 6, 14, 12, 11, 17, 7, 18, 6, 31, 0)
s = 82: (0, 19, 5, 15, 11, 13, 11, 12, 11, 12, 33, 0)
s = 83: (0, 24, 5, 20, 6, 13, 11, 7, 23, 5, 17, 0)
s = 84: (0, 24, 4, 26, 6, 15, 12, 10, 19, 6, 37, 0)
s = 85: (0, 22, 4, 14, 10, 12, 16, 7, 18, 9, 31, 0)
s = 86: (0, 16, 5, 10, 7, 9, 16, 6, 16, 7, 20, 0)
s = 87: (0, 30, 4, 22, 6, 8, 10, 6, 14, 9, 23, 0)
s = 88: (0, 19, 3, 10, 6, 15, 8, 9, 17, 7, 22, 0)
s = 89: (0, 19, 5, 11, 8, 14, 8, 9, 20, 7, 23, 0)
s = 90: (0, 14, 3, 14, 6, 11, 9, 11, 21, 8, 27, 0)
s = 91: (0, 27, 3, 14, 4, 12, 12, 10, 17, 7, 26, 0)
s = 92: (0, 13, 5, 30, 7, 9, 14, 7, 13, 8, 25, 0)
s = 93: (0, 27, 4, 12, 7, 9, 10, 7, 15, 10, 26, 0)
s = 94: (0, 26, 3, 19, 7, 12, 14, 7, 10, 7, 32, 0)
s = 95: (0, 19, 4, 22, 6, 18, 22, 10, 14, 10, 29, 0)
s = 96: (0, 23, 5, 28, 8, 11, 17, 12, 9, 7, 43, 0)
s = 97: (0, 25, 8, 23, 6, 12, 10, 13, 10, 5, 15, 0)
s = 98: (0, 34, 3, 26, 7, 9, 8, 7, 12, 5, 29, 0)
s = 99: (0, 19, 4, 25, 7, 12, 11, 7, 17, 7, 26, 0)
s = 100: (0, 25, 6, 33, 6, 20, 10, 6, 17, 7, 26, 0)
s = 101: (0, 30, 7, 11, 10, 17, 14, 6, 24, 7, 33, 0)
s = 102: (0, 28, 5, 21, 10, 12, 8, 7, 14, 9, 23, 0)
s = 103: (0, 20, 5, 16, 7, 13, 10, 14, 16, 7, 22, 0)
s = 104: (0, 11, 3, 15, 7, 11, 13, 10, 14, 10, 19, 0)
s = 105: (0, 19, 6, 17, 6, 15, 7, 7, 20, 6, 17, 0)
s = 106: (0, 24, 3, 27, 7, 9, 10, 7, 15, 9, 25, 0)
s = 107: (0, 19, 4, 21, 7, 11, 19, 15, 18, 8, 21, 0)
s = 108: (0, 29, 5, 25, 5, 21, 9, 10, 11, 7, 34, 0)
s = 109: (0, 22, 4, 17, 6, 17, 13, 14, 17, 7, 20, 0)
s = 110: (0, 14, 4, 22, 6, 8, 12, 6, 17, 6, 26, 0)
s = 111: (0, 18, 3, 11, 5, 10, 13, 11, 13, 6, 42, 0)
s = 112: (0, 22, 3, 18, 8, 9, 16, 10, 19, 6, 24, 0)
s = 113: (0, 27, 3, 32, 4, 10, 14, 7, 15, 8, 16, 0)
s = 114: (0, 23, 5, 14, 5, 10, 8, 9, 12, 7, 23, 0)
s = 115: (0, 17, 5, 20, 7, 13, 12, 12, 14, 7, 32, 0)
s = 116: (0, 16, 4, 13, 11, 9, 8, 11, 14, 7, 25, 0)
s = 117: (0, 28, 4, 15, 7, 8, 14, 10, 13, 7, 29, 0)
s = 118: (0, 22, 3, 11, 5, 14, 16, 8, 12, 5, 17, 0)
s = 119: (0, 19, 3, 14, 7, 7, 11, 6, 16, 6, 19, 0)
s = 120: (0, 24, 4, 17, 6, 10, 10, 7, 18, 7, 31, 0)
s = 121: (0, 14, 4, 14, 7, 15, 9, 6, 28, 6, 27, 0)
s = 122: (0, 18, 3, 14, 5, 8, 8, 6, 11, 9, 29, 0)
s = 123: (0, 29, 5, 25, 6, 19, 18, 10, 11, 7, 14, 0)
s = 124: (0, 12, 4, 21, 5, 15, 12, 5, 21, 6, 22, 0)
s = 125: (0, 20, 4, 14, 8, 12, 10, 12, 17, 8, 17, 0)
s = 126: (0, 31, 4, 22, 6, 17, 10, 8, 23, 12, 22, 0)
s = 127: (0, 23, 3, 18, 6, 10, 19, 10, 11, 7, 25, 0)
s = 128: (0, 27, 7, 24, 5, 8, 13, 7, 18, 7, 18, 0)
s = 129: (0, 13, 6, 18, 7, 10, 9, 12, 10, 9, 18, 0)
s = 130: (0, 15, 4, 29, 6, 9, 11, 8, 21, 8, 21, 0)
s = 131: (0, 20, 3, 16, 10, 11, 9, 5, 20, 9, 16, 0)
s = 132: (0, 21, 5, 21, 8, 13, 9, 8, 18, 10, 19, 0)
s = 133: (0, 31, 5, 13, 6, 18, 16, 10, 22, 6, 27, 0)
s = 134: (0, 16, 7, 26, 6, 17, 9, 10, 12, 8, 31, 0)
s = 135: (0, 18, 4, 25, 4, 7, 12, 14, 13, 9, 22, 0)
s = 136: (0, 32, 4, 19, 5, 14, 19, 12, 11, 11, 16, 0)
s = 137: (0, 16, 6, 14, 11, 9, 8, 6, 19, 8, 19, 0)
s = 138: (0, 20, 4, 25, 5, 15, 13, 8, 24, 5, 19, 0)
s = 139: (0, 23, 4, 12, 5, 13, 9, 10, 14, 10, 29, 0)
s = 140: (0, 17, 3, 26, 8, 10, 16, 8, 17, 8, 28, 0)
s = 141: (0, 28, 4, 21, 4, 14, 15, 7, 15, 7, 23, 0)
s = 142: (0, 22, 4, 19, 5, 11, 12, 7, 18, 7, 21, 0)
s = 143: (0, 21, 3, 20, 5, 15, 9, 8, 14, 6, 26, 0)
s = 144: (0, 21, 4, 12, 5, 13, 8, 5, 23, 7, 27, 0)
s = 145: (0, 24, 4, 16, 5, 15, 9, 8, 11, 8, 23, 0)
s = 146: (0, 31, 6, 12, 7, 16, 19, 6, 12, 6, 39, 0)
s = 147: (0, 16, 7, 18, 6, 8, 14, 7, 17, 6, 26, 0)
s = 148: (0, 26, 5, 16, 6, 12, 15, 10, 12, 6, 22, 0)
s = 149: (0, 13, 6, 20, 9, 10, 7, 9, 25, 6, 25, 0)
s = 150: (0, 20, 4, 19, 7, 10, 16, 13, 12, 6, 18, 0)
s = 151: (0, 25, 5, 19, 7, 10, 12, 7, 22, 5, 43, 0)
s = 152: (0, 21, 4, 24, 8, 12, 8, 8, 15, 6, 22, 0)
s = 153: (0, 21, 4, 14, 10, 14, 16, 10, 17, 6, 23, 0)
s = 154: (0, 20, 5, 11, 8, 14, 17, 11, 15, 10, 22, 0)
s = 155: (0, 16, 3, 18, 9, 8, 15, 6, 24, 7, 25, 0)
s = 156: (0, 21, 3, 13, 5, 12, 13, 7, 12, 8, 15, 0)
s = 157: (0, 34, 5, 20, 4, 14, 13, 7, 22, 6, 26, 0)
s = 158: (0, 24, 4, 23, 8, 16, 14, 7, 16, 11, 27, 0)
s = 159: (0, 13, 5, 16, 7, 15, 11, 6, 22, 6, 13, 0)
s = 160: (0, 13, 3, 12, 4, 16, 13, 9, 15, 7, 22, 0)
s = 161: (0, 17, 3, 11, 7, 12, 12, 11, 14, 10, 16, 0)
s = 162: (0, 16, 3, 17, 6, 12, 8, 8, 18, 7, 31, 0)
s = 163: (0, 25, 5, 17, 5, 14, 16, 9, 22, 13, 20, 0)
s = 164: (0, 22, 4, 20, 5, 13, 13, 12, 15, 9, 17, 0)
s = 165: (0, 26, 5, 25, 6, 10, 12, 12, 10, 11, 17, 0)
s = 166: (0, 27, 4, 13, 4, 12, 15, 6, 21, 7, 17, 0)
s = 167: (0, 22, 5, 21, 4, 17, 9, 10, 11, 10, 25, 0)
s = 168: (0, 24, 5, 13, 8, 12, 11, 6, 19, 6, 44, 0)
s = 169: (0, 28, 5, 14, 9, 9, 17, 12, 20, 6, 22, 0)
s = 170: (0, 19, 3, 13, 6, 11, 12, 6, 10, 6, 36, 0)
s = 171: (0, 31, 5, 18, 5, 11, 16, 7, 20, 7, 16, 0)
s = 172: (0, 23, 3, 16, 8, 18, 9, 10, 18, 8, 17, 0)
s = 173: (0, 13, 3, 15, 10, 12, 17, 8, 15, 7, 18, 0)
s = 174: (0, 28, 4, 15, 6, 12, 9, 9, 18, 6, 28, 0)
s = 175: (0, 13, 6, 19, 8, 9, 10, 9, 17, 6, 20, 0)
s = 176: (0, 21, 3, 19, 8, 14, 21, 5, 14, 7, 31, 0)
s = 177: (0, 14, 6, 19, 7, 16, 10, 8, 21, 13, 22, 0)
s = 178: (0, 26, 5, 23, 5, 10, 7, 8, 11, 7, 22, 0)
s = 179: (0, 21, 6, 14, 8, 15, 12, 10, 16, 6, 25, 0)
s = 180: (0, 21, 3, 11, 4, 11, 13, 12, 14, 12, 32, 0)
s = 181: (0, 18, 3, 19, 5, 14, 9, 8, 25, 7, 32, 0)
s = 182: (0, 19, 7, 25, 5, 19, 10, 6, 15, 9, 31, 0)
s = 183: (0, 20, 4, 16, 4, 11, 9, 7, 18, 10, 33, 0)
s = 184: (0, 23, 4, 13, 10, 8, 16, 8, 21, 8, 20, 0)
s = 185: (0, 15, 3, 14, 8, 11, 13, 10, 23, 11, 20, 0)
s = 186: (0, 12, 4, 18, 6, 17, 14, 8, 25, 8, 30, 0)
s = 187: (0, 19, 6, 20, 7, 19, 15, 13, 11, 7, 22, 0)
s = 188: (0, 16, 4, 13, 6, 14, 16, 6, 19, 7, 19, 0)
s = 189: (0, 23, 5, 22, 5, 8, 19, 11, 14, 12, 29, 0)
s = 190: (0, 26, 5, 20, 9, 8, 15, 12, 13, 6, 17, 0)
s = 191: (0, 15, 4, 19, 6, 12, 14, 7, 17, 12, 19, 0)
s = 192: (0, 33, 4, 15, 5, 14, 12, 7, 15, 5, 24, 0)
s = 193: (0, 26, 4, 18, 5, 11, 12, 8, 18, 6, 17, 0)
s = 194: (0, 19, 4, 19, 7, 14, 16, 8, 14, 6, 24, 0)
s = 195: (0, 22, 7, 21, 7, 13, 14, 11, 16, 9, 29, 0)
s = 196: (0, 17, 6, 18, 6, 23, 11, 5, 21, 9, 21, 0)
s = 197: (0, 19, 4, 15, 7, 10, 14, 8, 19, 7, 24, 0)
s = 198: (0, 15, 6, 21, 6, 11, 17, 7, 18, 10, 23, 0)
s = 199: (0, 21, 5, 20, 9, 8, 17, 11, 23, 6, 22, 0)
s = 200: (0, 22, 5, 20, 7, 11, 15, 11, 22, 5, 23, 0)
************************************************************************
ES/LS-VALUES:
jobnr.   ES(i)    LS(i)
------------------------------------------------------------------------
  0        0        0
  1        0       71
  2        0       63
  3        0       73
  4        2       77
  5        2       65
  6        7       71
  7        7       77
  8       14       79
  9       14       81
 10        7       77
 11       17       83
************************************************************************
BIG-M-VALUES:
M1 = 24, M2 = 95
************************************************************************
